data/solutions/recovery/wellformed/moderate/flexible/wellformed_moderate_instance11/30.sol
Elapsed time: 1.16
Upper bound: 11159.0
Planning weighted value: 74730.0
C[0]=11159.0
C[1]=11158.0
C[2]=11155.0
y[0]=2
y[1]=1
y[2]=2
y[3]=1
y[4]=1
y[5]=2
y[6]=0
y[7]=1
y[8]=1
y[9]=0
y[10]=1
y[11]=0
y[12]=2
y[13]=0
y[14]=2
y[15]=0
y[16]=2
y[17]=1
y[18]=2
y[19]=1
y[20]=1
y[21]=2
y[22]=0
y[23]=0
y[24]=1
y[25]=0
y[26]=1
y[27]=1
y[28]=1
y[29]=0
y[30]=0
y[31]=2
y[32]=2
